157
0 136 52 2 94 121 39 11 67 100 
80 74 154 112 143 90 141 79 63 65 
66 87 111 75 22 106 119 93 48 103 
53 69 148 77 76 44 98 35 156 72 
140 5 81 135 25 26 150 38 59 102 
30 155 14 101 70 128 42 125 73 36 
20 47 147 33 54 132 109 32 41 142 
108 4 56 62 8 134 29 17 139 1 
144 138 49 137 110 68 21 16 149 43 
123 85 7 120 57 31 3 88 37 97 
151 126 118 153 122 145 61 113 95 115 
116 107 89 15 82 58 46 19 83 146 
10 84 91 64 23 71 34 131 92 99 
27 28 152 40 51 130 13 96 45 86 
117 114 9 55 133 12 24 6 104 124 
105 18 50 127 78 60 129 
